(set-info :smt-lib-version 2.6)
(set-logic QF_FPBV)
(set-info :source |Random FP created by PyMPF|)
(set-info :license |https://www.gnu.org/licenses/gpl-3.0.html|)
(set-info :category random)
(set-info :status unsat)
;; fp.from.ubv(BitVec 128)
(declare-const x (_ BitVec 128))
(assert (= x #b11000000000000000000000000000000000000000000000000000000000000000000000000000000000000000000000000000000000000000000000000000010))
;; x should be 255211775190703847597530955573826158594

(declare-const r Float64)
(assert (= r ((_ to_fp_unsigned 11 53) RTZ x)))
(assert (not (fp.eq r ((_ to_fp 11 53) #x47E8000000000000))))
(check-sat)
(exit)
